
<<< setup


<<< generate

Version identifier: 22.1.1.0 | 2022-11-28 | 9160aff4d
CPXPARAM_TimeLimit                               1800
Tried aggregator 1 time.
MIP Presolve eliminated 1325 rows and 2450 columns.
Reduced MIP has 4901 rows, 2600 columns, and 14750 nonzeros.
Reduced MIP has 2500 binaries, 100 generals, 0 SOSs, and 0 indicators.
Presolve time = 0.00 sec. (6.72 ticks)
Probing time = 0.00 sec. (2.82 ticks)
Tried aggregator 1 time.
Detecting symmetries...
MIP Presolve eliminated 1 rows and 50 columns.
Reduced MIP has 4900 rows, 2550 columns, and 14700 nonzeros.
Reduced MIP has 2450 binaries, 100 generals, 0 SOSs, and 0 indicators.
Presolve time = 0.00 sec. (6.70 ticks)
Probing time = 0.00 sec. (2.82 ticks)
MIP emphasis: balance optimality and feasibility.
MIP search method: dynamic search.
Parallel mode: deterministic, using up to 8 threads.
Root relaxation solution time = 0.03 sec. (38.22 ticks)

        Nodes                                         Cuts/
   Node  Left     Objective  IInf  Best Integer    Best Bound    ItCnt     Gap

      0     0     2106.0000   429                   2106.0000      901         
*     0+    0                         2106.0000     2106.0000             0.00%
      0     0        cutoff           2106.0000     2106.0000      903    0.00%
Elapsed time = 0.26 sec. (659.85 ticks, tree = 0.01 MB, solutions = 1)

Implied bound cuts applied:  2

Root node processing (before b&c):
  Real time             =    0.26 sec. (660.05 ticks)
Parallel b&c, 8 threads:
  Real time             =    0.00 sec. (0.00 ticks)
  Sync time (average)   =    0.00 sec.
  Wait time (average)   =    0.00 sec.
                          ------------
Total (root+branch&cut) =    0.26 sec. (660.05 ticks)

<<< solve


OBJECTIVE: 2106

<<< post process


<<< done

